p cnf 23 9
a 1 2 0
e 3 0
a 4 0
e 5 0
a 6 7 0
e 8 9 10 11 12 13 0
a 14 15 16 17 18 0
e 19 0
a 20 0
e 21 22 0
a 23 0
23 22 -15 -4 -14 0
-11 14 12 -2 0
-19 -14 -16 -6 0
5 -13 -14 -18 -10 0
1 20 2 -23 0
-4 -3 -17 0
10 -23 -16 20 8 0
22 6 -1 -2 -3 0
20 -14 -17 -16 21 0
